61
100
70	5
69	4
68	1
67	4
66	5
65	3
64	2
63	5
62	6
61	7
60	3
59	4
58	6
57	4
56	5
55	7
54	4
53	4
52	4
51	4
50	1
49	8
48	2
47	6
46	4
45	5
44	3
43	4
42	6
41	3
40	4
39	7
38	3
37	5
36	3
35	6
34	7
33	7
32	4
31	6
30	3
29	5
28	2
27	5
26	3
25	7
24	9
23	7
22	5
21	6
20	4
19	6
18	3
17	12
16	2
15	9
14	3
13	7
12	9
11	7
10	5
